0 21 19
1 9 8
2 59 102
3 7 13
4 34 34
5 10 78
6 18 33
7 31 72
8 36 33
9 56 50
10 26 14
11 75 99
12 62 20
13 14 85
14 6 32
15 17 92
16 30 47
17 72 82
18 87 9
19 39 40
20 85 28
21 96 93
22 40 58
23 40 37
24 84 86
25 56 97
26 52 78
27 85 49
28 103 57
29 42 66
30 26 79
31 45 81
32 26 93
33 48 31
34 78 96
35 101 75
36 19 38
37 80 45
38 30 76
39 8 68
40 65 11
41 29 71
42 66 46
43 33 46
44 88 34
45 72 100
46 12 22
47 100 64
48 15 90
49 76 68
50 56 51
51 88 85
52 93 33
53 15 66
54 17 27
